60 60
26 25 1
26 9 1
17 17 1
6 10 1
13 30 1
34 27 1
6 32 1
19 17 1
34 3 1
25 20 1
10 7 1
20 17 1
28 11 1
20 33 1
25 32 1
17 4 1
14 27 1
14 15 1
24 34 1
29 22 1
23 34 1
17 31 1
27 20 1
17 21 1
28 30 1
11 20 1
30 10 1
25 31 1
14 21 1
28 35 1
6 34 1
1 25 1
10 28 1
6 4 1
8 31 1
12 23 1
26 11 1
34 4 1
33 20 1
30 21 1
10 14 1
4 19 1
19 32 1
6 26 1
29 20 1
28 10 1
21 5 1
4 23 1
21 25 1
21 21 1
34 28 1
34 8 1
5 4 1
13 35 1
31 27 1
8 24 1
11 9 1
13 14 1
32 11 1
30 20 1
40 40 
40 40 
40 40 
40 40 
40 40 
40 40 
40 40 
40 40 
40 40 
40 40 
40 40 
40 40 
40 40 
40 40 
40 40 
40 40 
40 40 
40 40 
40 40 
40 40 
40 40 
40 40 
40 40 
40 40 
40 40 
40 40 
40 40 
40 40 
40 40 
40 40 
40 40 
40 40 
40 40 
40 40 
40 40 
40 40 
40 40 
40 40 
40 40 
40 40 
40 40 
40 40 
40 40 
40 40 
40 40 
40 40 
40 40 
40 40 
40 40 
40 40 
40 40 
40 40 
40 40 
40 40 
40 40 
40 40 
40 40 
40 40 
40 40 
40 40 
